(set-logic BV)

(synth-fun deobfucated ( (a (BitVec 64))  (b (BitVec 64))  ) (BitVec 64)
	(
		(Start (BitVec 64)
			(
				(bvnot Start)
				(bvxor Start Start)
				(bvand Start Start)
				(bvor Start Start)
				(bvneg Start)
				(bvadd Start Start)
				(bvmul Start Start)
				(bvsub Start Start)
				a b
			)
		)
	)
)

(constraint (= (deobfucated #x0000000006145b79 #x0000000026597f0b) #xffffffffffffffff))
(constraint (= (deobfucated #x0000000004856c00 #x0000000016aab8b0) #xffffffffffffffff))
(constraint (= (deobfucated #x000000000ab5bec6 #x0000000027798a4c) #xffffffffffffffff))
(constraint (= (deobfucated #x0000000005123e07 #x000000000dee5993) #xffffffffffffffff))
(constraint (= (deobfucated #x000000000152972a #x0000000002631df2) #xffffffffffffffff))
(constraint (= (deobfucated #x0000000025dc755d #x000000002215069d) #xffffffffffffffff))
(constraint (= (deobfucated #x0000000004ceffce #x0000000011cc7bce) #xffffffffffffffff))
(constraint (= (deobfucated #x00000000289f9861 #x0000000031037ffc) #xffffffffffffffff))
(constraint (= (deobfucated #x000000002adb460c #x0000000010fd5c3e) #xffffffffffffffff))
(constraint (= (deobfucated #x0000000020f2b502 #x00000000281a491f) #xffffffffffffffff))
(constraint (= (deobfucated #x0000000025bbd8ea #x0000000039468f53) #xffffffffffffffff))
(constraint (= (deobfucated #x0000000032cf522e #x000000000e7033ff) #xffffffffffffffff))
(constraint (= (deobfucated #x000000000875b82e #x000000000594ab47) #xffffffffffffffff))
(constraint (= (deobfucated #x0000000005e4a8d8 #x000000002d85cb6a) #xffffffffffffffff))
(constraint (= (deobfucated #x000000003afe7646 #x0000000038f0cbf2) #xffffffffffffffff))
(constraint (= (deobfucated #x000000000069aa4a #x0000000003e0fade) #xffffffffffffffff))
(constraint (= (deobfucated #x0000000013647c69 #x000000000b5a6dae) #xffffffffffffffff))
(constraint (= (deobfucated #x00000000136c1c65 #x0000000015e9ea65) #xffffffffffffffff))
(constraint (= (deobfucated #x000000001271377a #x0000000038f02f04) #xffffffffffffffff))
(constraint (= (deobfucated #x00000000291a837f #x000000001e3c44e2) #xffffffffffffffff))
(check-synth)